l01.solver.3.cplex.todo/03.cplex.firstModel/first.lp
\ENCODING=ISO-8859-1
\Problem name: 

Maximize
 obj: 2 x1 + 3 x2 + x6
Subject To
 c1: x1 + x2 - 5 x5 <= 0
 c2: x2 + 9 x3 + 9 x4 + 8 x6  = 2
 c3: 8 x3 >= -1
 c4: - 4 x3 + 7 x5 + 5 x6 <= 9
Bounds
 -Inf <= x3 <= 0
      x4 Free
 0 <= x5 <= 1
      x6 >= 0
Binaries
 x5 
Generals //integer
 x6 
End
