l01.solver.3.cplex.todo/03.cplex.firstModel/first.sol
<?xml version = "1.0" encoding="UTF-8" standalone="yes"?>
<CPLEXSolution version="1.2">
 <header
   problemName=""
   solutionName="incumbent"
   solutionIndex="-1"
   objectiveValue="15.000000000000007"
   solutionTypeValue="3"
   solutionTypeString="primal"
   solutionStatusValue="101"
   solutionStatusString="integer optimal solution"
   solutionMethodString="mip"
   primalFeasible="1"
   dualFeasible="1"
   MIPNodes="0"
   MIPIterations="0"
   writeLevel="1"/>
 <quality
   epInt="1.0000000000000001e-05"
   epRHS="9.9999999999999995e-07"
   maxIntInfeas="0"
   maxPrimalInfeas="2.6645352591003757e-15"
   maxX="5.0000000000000027"
   maxSlack="2"/>
 <linearConstraints>
  <constraint index="0" slack="-2.6645352591003757e-15"/>
  <constraint index="1" slack="-4.4408920985006262e-16"/>
  <constraint index="2" slack="-1"/>
  <constraint index="3" slack="2"/>
 </linearConstraints>
 <variables>
  <variable index="0" value="0"/>
  <variable index="1" value="5.0000000000000027"/>
  <variable index="2" value="0"/>
  <variable index="3" value="-0.33333333333333359"/>
  <variable index="4" value="1"/>
  <variable index="5" value="0"/>
 </variables>
</CPLEXSolution>
